1754
53 96 38 39 49 92 82 57 75 20 36 42 15 79 59 66 81 25 84 85 64 37 19 78 24 47 14 46 88 3 34 12 16 77 54 65 83 33 86 70 71 13 72 41 51 95 48 2 32 97 23 93 26 91 90 67 43 76 45 69 60 89 94 58 28 74 80 35 98 8 10 62 7 5 6 99 27 9 44 55 63 68 52 40 11 87 50 18 61 1 17 73 21 4 22 31 30 56 29 
